n = 100;
C = 509;
w = [622,420,520,230,259,890,8,864,944,95,401,913,625,112,944,377,265,232,57,780,164,388,60,298,235,143,987,295,683,238,813,964,78,541,318,660,153,249,805,272,996,796,228,907,726,556,36,455,958,564,719,998,443,249,75,570,797,350,566,686,489,769,389,594,305,907,795,539,290,860,896,824,100,29,631,110,678,45,303,670,487,413,203,266,150,947,802,979,947,986,104,974,267,16,795,977,376,543,719,243];
p = [323,916,468,312,391,427,271,110,255,228,679,701,325,172,293,179,380,420,682,707,966,75,118,206,735,282,746,424,336,446,439,815,21,689,460,504,815,241,820,193,154,407,749,408,784,154,18,970,981,106,746,973,177,253,464,535,913,141,649,805,886,999,129,677,20,198,358,916,780,191,82,832,667,539,654,135,649,439,202,30,459,711,518,963,914,119,348,444,561,568,771,446,338,842,381,727,338,908,90,884];
